c turning on binary mode checking
c parsing input formula with 259840 variables and 1039934 clauses
c finished parsing, read 23322611 bytes from proof file
c detected empty clause; start verification via backward checking
c 12918 of 1039934 clauses in core                            
c 10200 of 602248 lemmas in core using 184100 resolution steps
c 0 RAT lemmas in core; 1413 redundant literals in core lemmas
s VERIFIED
c verification time: 3.152 seconds
